\* metodo1 *\
Maximize
Total_de_calorias: 655.381 Alim_Arroz_blanco + 133.056 Alim_Atun_al_agua
 + 119.8382 Alim_Queso_crema
Subject To
Limite_inferior_de_carbos: 147.9075 Alim_Arroz_blanco
 + 0.95015 Alim_Queso_crema >= 23.2171875
Limite_inferior_de_grasas: 1.221 Alim_Arroz_blanco + 1.4784 Alim_Atun_al_agua
 + 9.7198 Alim_Queso_crema >= 14.6502029221
Limite_inferior_de_proteinas: 13.1905 Alim_Arroz_blanco
 + 29.9376 Alim_Atun_al_agua + 7.13985 Alim_Queso_crema >= 23.4670955882
Limite_superior_de_carbos: 147.9075 Alim_Arroz_blanco
 + 0.95015 Alim_Queso_crema <= 25.6611019737
Limite_superior_de_grasas: 1.221 Alim_Arroz_blanco + 1.4784 Alim_Atun_al_agua
 + 9.7198 Alim_Queso_crema <= 16.1923295455
Limite_superior_de_proteinas: 13.1905 Alim_Arroz_blanco
 + 29.9376 Alim_Atun_al_agua + 7.13985 Alim_Queso_crema <= 25.9373161765
_C1: 655.381 Alim_Arroz_blanco + 133.056 Alim_Atun_al_agua
 + 119.8382 Alim_Queso_crema <= 335.356798581
End
